     Program PWSCF v.7.2 starts on 23Jun2025 at  0:23:48

     Reading input from TiO2output.in

     Current dimensions of program PWSCF are:
     Max number of different atomic species (ntypx) = 10
     Max number of k-points (npk) =  40000
     Max angular momentum in pseudopotentials (lmaxx) =  4
     file O.upf: wavefunction(s)  2P renormalized
     Found identity + (  0.0000  0.0000  0.3333) symmetry
     This is a supercell, fractional translations are disabled
     Message from routine setup:
     using ibrav=0 with symmetry is DISCOURAGED, use correct ibrav instead

     R & G space division:  proc/nbgrp/npool/nimage =       2
     Subspace diagonalization in iterative solution of the eigenvalue problem:
     a serial algorithm will be used

     Using Slab Decomposition

     bravais-lattice index     =            0
     lattice parameter (alat)  =      17.3560  a.u.
     unit-cell volume          =    7575.6650 (a.u.)^3
     number of atoms/cell      =          108
     number of atomic types    =            2
     number of electrons       =       864.00
     number of Kohn-Sham states=          518
     kinetic-energy cutoff     =      30.0000  Ry
     charge density cutoff     =     240.0000  Ry
     scf convergence threshold =      1.0E-06
     mixing beta               =       0.7000
     number of iterations used =            8  plain     mixing
     Exchange-correlation= SLA  PW   PBX  PBC
                           (   1   4   3   4   0   0   0)

     celldm(1)=  17.356001  celldm(2)=   0.000000  celldm(3)=   0.000000
     celldm(4)=   0.000000  celldm(5)=   0.000000  celldm(6)=   0.000000

     crystal axes: (cart. coord. in units of alat)
               a(1) = (   1.000000   0.000000   0.000000 )
               a(2) = (   0.000000   1.500000   0.000000 )
               a(3) = (   0.000000   0.000000   0.966008 )

     reciprocal axes: (cart. coord. in units 2 pi/alat)
               b(1) = (  1.000000  0.000000  0.000000 )
               b(2) = (  0.000000  0.666667  0.000000 )
               b(3) = (  0.000000  0.000000  1.035189 )

     PseudoPot. # 1 for Ti read from file:
     ./Ti.upf
     MD5 check sum: 8e4df49b7f0d34bbd5052bf3f5ea0213
     Pseudo is Ultrasoft, Zval = 12.0
     Generated by new atomic code, or converted to UPF format
     Using radial grid of  851 points,  6 beta functions with:
                l(1) =   0
                l(2) =   0
                l(3) =   1
                l(4) =   1
                l(5) =   2
                l(6) =   2
     Q(r) pseudized with  8 coefficients,  rinner =    1.000   1.000   1.000
                                                       1.000   1.000

     PseudoPot. # 2 for O  read from file:
     ./O.upf
     MD5 check sum: 0234752ac141de4415c5fc33072bef88
     Pseudo is Projector augmented-wave + core cor, Zval =  6.0
     Generated using "atomic" code by A. Dal Corso  v.5.0.99 svn rev. 10869
     Shape of augmentation charge: BESSEL
     Using radial grid of 1095 points,  4 beta functions with:
                l(1) =   0
                l(2) =   0
                l(3) =   1
                l(4) =   1
     Q(r) pseudized with 0 coefficients

     atomic species   valence    mass     pseudopotential
        Ti            12.00    47.86700     Ti( 1.00)
        O              6.00    15.99900     O ( 1.00)

      4 Sym. Ops., with inversion, found

                                    s                        frac. trans.

      isym =  1     identity

 cryst.   s( 1) = (     1          0          0      )
                  (     0          1          0      )
                  (     0          0          1      )

 cart.    s( 1) = (  1.0000000  0.0000000  0.0000000 )
                  (  0.0000000  1.0000000  0.0000000 )
                  (  0.0000000  0.0000000  1.0000000 )

      isym =  2     180 deg rotation - cart. axis [0,0,1]

[...]

      isym =  3     inversion

[...]

      isym =  4     inv. 180 deg rotation - cart. axis [0,0,1]

 cryst.   s( 4) = (     1          0          0      )
                  (     0          1          0      )
                  (     0          0         -1      )

 cart.    s( 4) = (  1.0000000  0.0000000  0.0000000 )
                  (  0.0000000  1.0000000  0.0000000 )
                  (  0.0000000  0.0000000 -1.0000000 )

   Cartesian axes

     site n.     atom                  positions (alat units)
         1           Ti  tau(   1) = (   0.0000000   0.0000000   0.0000000  )
         2           Ti  tau(   2) = (   0.2500000   0.2500000   0.1610013  )
         3           O   tau(   3) = (   0.1524800   0.1524800   0.0000000  )
         4           O   tau(   4) = (   0.3475200   0.3475200   0.0000000  )
         5           O   tau(   5) = (   0.4024800   0.0975200   0.1610013  )
         6           O   tau(   6) = (   0.0975200   0.4024800   0.1610013  )
         7           Ti  tau(   7) = (   0.0000000   0.0000000   0.3220025  )
         8           Ti  tau(   8) = (   0.2500000   0.2500000   0.4830038  )
         9           O   tau(   9) = (   0.1524800   0.1524800   0.3220025  )
        10           O   tau(  10) = (   0.3475200   0.3475200   0.3220025  )
        11           O   tau(  11) = (   0.4024800   0.0975200   0.4830038  )
        12           O   tau(  12) = (   0.0975200   0.4024800   0.4830038  )
        13           Ti  tau(  13) = (   0.0000000   0.0000000   0.6440051  )
        14           Ti  tau(  14) = (   0.2500000   0.2500000   0.8050063  )
        15           O   tau(  15) = (   0.1524800   0.1524800   0.6440051  )
        16           O   tau(  16) = (   0.3475200   0.3475200   0.6440051  )
        17           O   tau(  17) = (   0.4024800   0.0975200   0.8050063  )
        18           O   tau(  18) = (   0.0975200   0.4024800   0.8050063  )
        19           Ti  tau(  19) = (   0.0000000   0.5000000   0.0000000  )
        20           Ti  tau(  20) = (   0.2500000   0.7500000   0.1610013  )
        21           O   tau(  21) = (   0.1524800   0.6524800   0.0000000  )
        22           O   tau(  22) = (   0.3475200   0.8475200   0.0000000  )
        23           O   tau(  23) = (   0.4024800   0.5975200   0.1610013  )
        24           O   tau(  24) = (   0.0975200   0.9024800   0.1610013  )
        25           Ti  tau(  25) = (   0.0000000   0.5000000   0.3220025  )
        26           Ti  tau(  26) = (   0.2500000   0.7500000   0.4830038  )
        27           O   tau(  27) = (   0.1524800   0.6524800   0.3220025  )
        28           O   tau(  28) = (   0.3475200   0.8475200   0.3220025  )
        29           O   tau(  29) = (   0.4024800   0.5975200   0.4830038  )
        30           O   tau(  30) = (   0.0975200   0.9024800   0.4830038  )
        31           Ti  tau(  31) = (   0.0000000   0.5000000   0.6440051  )
        32           Ti  tau(  32) = (   0.2500000   0.7500000   0.8050063  )
        33           O   tau(  33) = (   0.1524800   0.6524800   0.6440051  )
        34           O   tau(  34) = (   0.3475200   0.8475200   0.6440051  )
        35           O   tau(  35) = (   0.4024800   0.5975200   0.8050063  )
        36           O   tau(  36) = (   0.0975200   0.9024800   0.8050063  )
        37           Ti  tau(  37) = (   0.0000000   1.0000000   0.0000000  )
        38           Ti  tau(  38) = (   0.2500000   1.2500000   0.1610013  )
        39           O   tau(  39) = (   0.1524800   1.1524800   0.0000000  )
        40           O   tau(  40) = (   0.3475200   1.3475200   0.0000000  )
        41           O   tau(  41) = (   0.4024800   1.0975200   0.1610013  )
        42           O   tau(  42) = (   0.0975200   1.4024800   0.1610013  )
        43           Ti  tau(  43) = (   0.0000000   1.0000000   0.3220025  )
        44           Ti  tau(  44) = (   0.2500000   1.2500000   0.4830038  )
        45           O   tau(  45) = (   0.1524800   1.1524800   0.3220025  )
        46           O   tau(  46) = (   0.3475200   1.3475200   0.3220025  )
        47           O   tau(  47) = (   0.4024800   1.0975200   0.4830038  )
        48           O   tau(  48) = (   0.0975200   1.4024800   0.4830038  )
        49           Ti  tau(  49) = (   0.0000000   1.0000000   0.6440051  )
        50           Ti  tau(  50) = (   0.2500000   1.2500000   0.8050063  )
        51           O   tau(  51) = (   0.1524800   1.1524800   0.6440051  )
        52           O   tau(  52) = (   0.3475200   1.3475200   0.6440051  )
        53           O   tau(  53) = (   0.4024800   1.0975200   0.8050063  )
        54           O   tau(  54) = (   0.0975200   1.4024800   0.8050063  )
        55           Ti  tau(  55) = (   0.5000000   0.0000000   0.0000000  )
        56           Ti  tau(  56) = (   0.7500000   0.2500000   0.1610013  )
        57           O   tau(  57) = (   0.6524800   0.1524800   0.0000000  )
        58           O   tau(  58) = (   0.8475200   0.3475200   0.0000000  )
        59           O   tau(  59) = (   0.9024800   0.0975200   0.1610013  )
        60           O   tau(  60) = (   0.5975200   0.4024800   0.1610013  )
[...]
        94           O   tau(  94) = (   0.8475200   1.3475200   0.0000000  )
        95           O   tau(  95) = (   0.9024800   1.0975200   0.1610013  )
        96           O   tau(  96) = (   0.5975200   1.4024800   0.1610013  )
        97           Ti  tau(  97) = (   0.5000000   1.0000000   0.3220025  )
        98           Ti  tau(  98) = (   0.7500000   1.2500000   0.4830038  )
        99           O   tau(  99) = (   0.6524800   1.1524800   0.3220025  )
       100           O   tau( 100) = (   0.8475200   1.3475200   0.3220025  )
       101           O   tau( 101) = (   0.9024800   1.0975200   0.4830038  )
       102           O   tau( 102) = (   0.5975200   1.4024800   0.4830038  )
       103           Ti  tau( 103) = (   0.5000000   1.0000000   0.6440051  )
       104           Ti  tau( 104) = (   0.7500000   1.2500000   0.8050063  )
       105           O   tau( 105) = (   0.6524800   1.1524800   0.6440051  )
       106           O   tau( 106) = (   0.8475200   1.3475200   0.6440051  )
       107           O   tau( 107) = (   0.9024800   1.0975200   0.8050063  )
       108           O   tau( 108) = (   0.5975200   1.4024800   0.8050063  )

   Crystallographic axes

     site n.     atom                  positions (cryst. coord.)
         1           Ti  tau(   1) = (  0.0000000  0.0000000  0.0000000  )
         2           Ti  tau(   2) = (  0.2500000  0.1666667  0.1666667  )
         3           O   tau(   3) = (  0.1524800  0.1016533  0.0000000  )
         4           O   tau(   4) = (  0.3475200  0.2316800  0.0000000  )
         5           O   tau(   5) = (  0.4024800  0.0650134  0.1666667  )
         6           O   tau(   6) = (  0.0975200  0.2683200  0.1666667  )
         7           Ti  tau(   7) = (  0.0000000  0.0000000  0.3333333  )
         8           Ti  tau(   8) = (  0.2500000  0.1666667  0.5000000  )
         9           O   tau(   9) = (  0.1524800  0.1016533  0.3333333  )
        10           O   tau(  10) = (  0.3475200  0.2316800  0.3333333  )
        11           O   tau(  11) = (  0.4024800  0.0650134  0.5000000  )
[...]
    11.0546  11.2550  11.2551  11.2551  11.2551  11.2970  11.2971  11.2972
    11.2973  11.3684  11.4598  11.4599  11.4600  11.4601  11.5051  11.5051
    11.5291  11.5291  11.5879  11.6796  11.6797  11.7385  11.7387  11.7712
    11.7712  11.8088  11.8088  11.8089  11.8089  11.8090  11.8090  11.8091
    11.8091  11.8244  11.8245  11.8245  11.8247  11.8941  11.8941  11.8941
    11.8941  11.9070  11.9070  12.0366  12.0367  12.1067  12.1067  12.2023
    12.2025  12.2118  12.2118  12.2118  12.2118  12.2119  12.2119  12.2120
    12.2121  12.2310  12.2310  12.2729  12.2730  12.2730  12.2730  12.3270
    12.3270  12.4267  12.4267  12.4267  12.4267  12.4312  12.4313  12.4313
    12.4314  12.5782  12.5783  12.5783  12.5784  12.5784  12.5785  12.5785
    12.5785  12.6003  12.6004  12.6004  12.6005  12.7589

     occupation numbers
     1.0000   1.0000   1.0000   1.0000   1.0000   1.0000   1.0000   1.0000
     1.0000   1.0000   1.0000   1.0000   1.0000   1.0000   1.0000   1.0000
     1.0000   1.0000   1.0000   1.0000   1.0000   1.0000   1.0000   1.0000
     1.0000   1.0000   1.0000   1.0000   1.0000   1.0000   1.0000   1.0000
     1.0000   1.0000   1.0000   1.0000   1.0000   1.0000   1.0000   1.0000
     1.0000   1.0000   1.0000   1.0000   1.0000   1.0000   1.0000   1.0000
     1.0000   1.0000   1.0000   1.0000   1.0000   1.0000   1.0000   1.0000
     1.0000   1.0000   1.0000   1.0000   1.0000   1.0000   1.0000   1.0000
     1.0000   1.0000   1.0000   1.0000   1.0000   1.0000   1.0000   1.0000
     1.0000   1.0000   1.0000   1.0000   1.0000   1.0000   1.0000   1.0000
     1.0000   1.0000   1.0000   1.0000   1.0000   1.0000   1.0000   1.0000
     1.0000   1.0000   1.0000   1.0000   1.0000   1.0000   1.0000   1.0000
     1.0000   1.0000   1.0000   1.0000   1.0000   1.0000   1.0000   1.0000
     1.0000   1.0000   1.0000   1.0000   1.0000   1.0000   1.0000   1.0000
     1.0000   1.0000   1.0000   1.0000   1.0000   1.0000   1.0000   1.0000
     1.0000   1.0000   1.0000   1.0000   1.0000   1.0000   1.0000   1.0000
     1.0000   1.0000   1.0000   1.0000   1.0000   1.0000   1.0000   1.0000
     1.0000   1.0000   1.0000   1.0000   1.0000   1.0000   1.0000   1.0000
     1.0000   1.0000   1.0000   1.0000   1.0000   1.0000   1.0000   1.0000
     1.0000   1.0000   1.0000   1.0000   1.0000   1.0000   1.0000   1.0000
     1.0000   1.0000   1.0000   1.0000   1.0000   1.0000   1.0000   1.0000
     1.0000   1.0000   1.0000   1.0000   1.0000   1.0000   1.0000   1.0000
     1.0000   1.0000   1.0000   1.0000   1.0000   1.0000   1.0000   1.0000
     1.0000   1.0000   1.0000   1.0000   1.0000   1.0000   1.0000   1.0000
     1.0000   1.0000   1.0000   1.0000   1.0000   1.0000   1.0000   1.0000
     1.0000   1.0000   1.0000   1.0000   1.0000   1.0000   1.0000   1.0000
     1.0000   1.0000   1.0000   1.0000   1.0000   1.0000   1.0000   1.0000
     1.0000   1.0000   1.0000   1.0000   1.0000   1.0000   1.0000   1.0000
     1.0000   1.0000   1.0000   1.0000   1.0000   1.0000   1.0000   1.0000
     1.0000   1.0000   1.0000   1.0000   1.0000   1.0000   1.0000   1.0000
     1.0000   1.0000   1.0000   1.0000   1.0000   1.0000   1.0000   1.0000
     1.0000   1.0000   1.0000   1.0000   1.0000   1.0000   1.0000   1.0000
     1.0000   1.0000   1.0000   1.0000   1.0000   1.0000   1.0000   1.0000
     1.0000   1.0000   1.0000   1.0000   1.0000   1.0000   1.0000   1.0000
     1.0000   1.0000   1.0000   1.0000   1.0000   1.0000   1.0000   1.0000
     1.0000   1.0000   1.0000   1.0000   1.0000   1.0000   1.0000   1.0000
     1.0000   1.0000   1.0000   1.0000   1.0000   1.0000   1.0000   1.0000
     1.0000   1.0000   1.0000   1.0000   1.0000   1.0000   1.0000   1.0000
     1.0000   1.0000   1.0000   1.0000   1.0000   1.0000   1.0000   1.0000
     1.0000   1.0000   1.0000   1.0000   1.0000   1.0000   1.0000   1.0000
     1.0000   1.0000   1.0000   1.0000   1.0000   1.0000   1.0000   1.0000
     1.0000   1.0000   1.0000   1.0000   1.0000   1.0000   1.0000   1.0000
     1.0000   1.0000   1.0000   1.0000   1.0000   1.0000   1.0000   1.0000
     1.0000   1.0000   1.0000   1.0000   1.0000   1.0000   1.0000   1.0000
     1.0000   1.0000   1.0000   1.0000   1.0000   1.0000   1.0000   1.0000
     1.0000   1.0000   1.0000   1.0000   1.0000   1.0000   1.0000   1.0000
     1.0000   1.0000   1.0000   1.0000   1.0000   1.0000   1.0000   1.0000
     1.0000   1.0000   1.0000   1.0000   1.0000   1.0000   1.0000   1.0000
     1.0000   1.0000   1.0000   1.0000   1.0000   1.0000   1.0000   1.0000
     1.0000   1.0000   1.0000   1.0000   1.0000   1.0000   1.0000   1.0000
     1.0000   1.0000   1.0000   1.0000   1.0000   1.0000   1.0000   1.0000
     1.0000   1.0000   1.0000   1.0000   1.0000   1.0000   1.0000   1.0000
     1.0000   1.0000   1.0000   1.0000   1.0000   1.0000   1.0000   1.0000
     1.0000   1.0000   1.0000   1.0000   1.0000   1.0000   1.0000   1.0000
     0.0000   0.0000   0.0000   0.0000   0.0000   0.0000   0.0000   0.0000
     0.0000   0.0000   0.0000   0.0000   0.0000   0.0000   0.0000   0.0000
     0.0000   0.0000   0.0000   0.0000   0.0000   0.0000   0.0000   0.0000
     0.0000   0.0000   0.0000   0.0000   0.0000   0.0000   0.0000   0.0000
     0.0000   0.0000   0.0000   0.0000   0.0000   0.0000   0.0000   0.0000
     0.0000   0.0000   0.0000   0.0000   0.0000   0.0000   0.0000   0.0000
     0.0000   0.0000   0.0000   0.0000   0.0000   0.0000   0.0000   0.0000
     0.0000   0.0000   0.0000   0.0000   0.0000   0.0000   0.0000   0.0000
     0.0000   0.0000   0.0000   0.0000   0.0000   0.0000   0.0000   0.0000
     0.0000   0.0000   0.0000   0.0000   0.0000   0.0000   0.0000   0.0000
     0.0000   0.0000   0.0000   0.0000   0.0000   0.0000

[...]

          k = 0.0000-0.3333-0.5176 ( 20988 PWs)   bands (ev):

[...]

          k =-0.5000 0.0000 0.0000 ( 21058 PWs)   bands (ev):

[...]

          k =-0.5000-0.3333-0.5176 ( 21016 PWs)   bands (ev):

   -47.7313 -47.7311 -47.7311 -47.7310 -47.7310 -47.7309 -47.7308 -47.7308
   -47.7266 -47.7265 -47.7265 -47.7265 -47.7264 -47.7264 -47.7262 -47.7260
   -47.7222 -47.7220 -47.7219 -47.7219 -47.7218 -47.7218 -47.7217 -47.7217
   -47.6962 -47.6961 -47.6960 -47.6960 -47.6959 -47.6959 -47.6957 -47.6957
   -47.6956 -47.6956 -47.6956 -47.6954 -24.2944 -24.2944 -24.2944 -24.2943
   -24.2900 -24.2899 -24.2899 -24.2896 -24.2863 -24.2863 -24.2863 -24.2861
   -24.0285 -24.0284 -24.0284 -24.0284 -24.0283 -24.0283 -24.0283 -24.0282
   -24.0183 -24.0182 -24.0182 -24.0182 -24.0181 -24.0181 -24.0180 -24.0180
   -23.9882 -23.9882 -23.9881 -23.9881 -23.9881 -23.9881 -23.9881 -23.9880
   -23.9659 -23.9659 -23.9659 -23.9659 -23.9659 -23.9658 -23.9658 -23.9658
   -23.9484 -23.9483 -23.9483 -23.9483 -23.9483 -23.9483 -23.9481 -23.9480
   -23.9425 -23.9425 -23.9424 -23.9424 -23.9424 -23.9424 -23.9423 -23.9422
   -23.9090 -23.9089 -23.9089 -23.9088 -23.9039 -23.9036 -23.9036 -23.9035
   -23.9023 -23.9023 -23.9023 -23.9023 -23.9022 -23.9022 -23.9022 -23.9022
   -23.8988 -23.8987 -23.8987 -23.8986 -23.8917 -23.8916 -23.8915 -23.8915
   -23.8907 -23.8905 -23.8905 -23.8905 -23.8905 -23.8904 -23.8903 -23.8903
   -23.8884 -23.8883 -23.8882 -23.8882 -23.8881 -23.8881 -23.8881 -23.8880
   -23.8795 -23.8794 -23.8794 -23.8794 -23.8794 -23.8793 -23.8793 -23.8793
    -8.6619  -8.6618  -8.6618  -8.6618  -8.6617  -8.6617  -8.6617  -8.6616
    -8.2810  -8.2810  -8.2809  -8.2809  -8.2809  -8.2808  -8.2808  -8.2808
    -8.1113  -8.1113  -8.1113  -8.1112  -8.0350  -8.0349  -8.0349  -8.0349
    -7.9131  -7.9130  -7.9130  -7.9130  -7.9129  -7.9129  -7.9129  -7.9128
    -7.8879  -7.8879  -7.8878  -7.8878  -7.6474  -7.6474  -7.6474  -7.6473
    -7.6473  -7.6473  -7.6473  -7.6472  -7.6462  -7.6462  -7.6461  -7.6461
    -7.5784  -7.5783  -7.5783  -7.5782  -7.5782  -7.5782  -7.5782  -7.5781
    -7.4832  -7.4832  -7.4831  -7.4831  -7.4751  -7.4751  -7.4751  -7.4750
    -7.4750  -7.4750  -7.4749  -7.4749  -7.4092  -7.4092  -7.4092  -7.4091
     3.9403   3.9404   3.9404   3.9404   3.9405   3.9405   3.9405   3.9406
     4.1882   4.1883   4.1883   4.1883   4.2048   4.2049   4.2049   4.2050
     4.2050   4.2050   4.2050   4.2051   4.2075   4.2075   4.2075   4.2076
     4.5809   4.5810   4.5810   4.5810   4.5811   4.5811   4.5811   4.5811
     4.6786   4.6787   4.6787   4.6787   4.6944   4.6944   4.6944   4.6944
     4.6944   4.6944   4.6944   4.6945   4.8368   4.8368   4.8368   4.8368
     4.8368   4.8369   4.8369   4.8369   5.0229   5.0231   5.0231   5.0231
     5.0257   5.0257   5.0257   5.0258   5.0848   5.0848   5.0848   5.0848
     5.1105   5.1105   5.1106   5.1106   5.1106   5.1106   5.1106   5.1107
     5.2336   5.2336   5.2337   5.2338   5.5177   5.5177   5.5177   5.5178
     5.5178   5.5178   5.5178   5.5178   5.7069   5.7069   5.7070   5.7070
     6.1358   6.1359   6.1359   6.1359   6.1359   6.1359   6.1359   6.1359
     6.2974   6.2975   6.2975   6.2975   6.2975   6.2975   6.2975   6.2975
     6.3789   6.3789   6.3789   6.3791   6.5165   6.5165   6.5165   6.5166
     6.5217   6.5219   6.5219   6.5219   6.6713   6.6714   6.6714   6.6714
     6.7107   6.7107   6.7107   6.7107   6.7107   6.7107   6.7108   6.7108
     6.8358   6.8358   6.8359   6.8359   6.8359   6.8359   6.8359   6.8359
     6.8955   6.8955   6.8955   6.8956   6.8956   6.8956   6.8956   6.8956
     7.1662   7.1662   7.1662   7.1662   7.1663   7.1663   7.1663   7.1663
     7.1756   7.1756   7.1757   7.1757   7.2464   7.2464   7.2464   7.2464
     7.2465   7.2465   7.2465   7.2465   7.4586   7.4586   7.4587   7.4587
     7.6484   7.6485   7.6485   7.6486   7.7295   7.7295   7.7296   7.7296
     7.7529   7.7530   7.7530   7.7530   7.9693   7.9693   7.9693   7.9694
     7.9694   7.9694   7.9694   7.9695   8.0516   8.0516   8.0517   8.0517
     8.0517   8.0517   8.0518   8.0518   8.0611   8.0611   8.0611   8.0612
     8.0612   8.0612   8.0613   8.0613   8.2948   8.2948   8.2949   8.2950
     8.6412   8.6413   8.6413   8.6413   8.6414   8.6414   8.6414   8.6415
    11.3536  11.3539  11.3539  11.3540  11.3819  11.3820  11.3821  11.3821
    11.5655  11.5655  11.5656  11.5656  11.5656  11.5656  11.5656  11.5657
    11.6148  11.6149  11.6149  11.6149  11.6149  11.6150  11.6150  11.6150
    11.7818  11.7818  11.7818  11.7818  11.7819  11.7819  11.7820  11.7820
    11.9064  11.9065  11.9066  11.9066  11.9887  11.9888  11.9888  11.9889
    11.9889  11.9889  11.9889  11.9889  12.0378  12.0378  12.0378  12.0378
    12.0379  12.0379  12.0380  12.0380  12.2880  12.2880  12.2880  12.2880
    12.2881  12.2882  12.2882  12.2882  12.3642  12.3642  12.3643  12.3643
    12.3643  12.3643  12.3644  12.3644  12.3670  12.3671  12.3671  12.3672
    12.3699  12.3700  12.3700  12.3702  12.3872  12.3873  12.3873  12.3876
    12.6205  12.6205  12.6205  12.6207  12.7396  12.7397

     occupation numbers
     1.0000   1.0000   1.0000   1.0000   1.0000   1.0000   1.0000   1.0000
     1.0000   1.0000   1.0000   1.0000   1.0000   1.0000   1.0000   1.0000
     1.0000   1.0000   1.0000   1.0000   1.0000   1.0000   1.0000   1.0000
     1.0000   1.0000   1.0000   1.0000   1.0000   1.0000   1.0000   1.0000
     1.0000   1.0000   1.0000   1.0000   1.0000   1.0000   1.0000   1.0000
     1.0000   1.0000   1.0000   1.0000   1.0000   1.0000   1.0000   1.0000
     1.0000   1.0000   1.0000   1.0000   1.0000   1.0000   1.0000   1.0000
     1.0000   1.0000   1.0000   1.0000   1.0000   1.0000   1.0000   1.0000
     1.0000   1.0000   1.0000   1.0000   1.0000   1.0000   1.0000   1.0000
     1.0000   1.0000   1.0000   1.0000   1.0000   1.0000   1.0000   1.0000
     1.0000   1.0000   1.0000   1.0000   1.0000   1.0000   1.0000   1.0000
     1.0000   1.0000   1.0000   1.0000   1.0000   1.0000   1.0000   1.0000
     1.0000   1.0000   1.0000   1.0000   1.0000   1.0000   1.0000   1.0000
     1.0000   1.0000   1.0000   1.0000   1.0000   1.0000   1.0000   1.0000
     1.0000   1.0000   1.0000   1.0000   1.0000   1.0000   1.0000   1.0000
     1.0000   1.0000   1.0000   1.0000   1.0000   1.0000   1.0000   1.0000
     1.0000   1.0000   1.0000   1.0000   1.0000   1.0000   1.0000   1.0000
     1.0000   1.0000   1.0000   1.0000   1.0000   1.0000   1.0000   1.0000
     1.0000   1.0000   1.0000   1.0000   1.0000   1.0000   1.0000   1.0000
     1.0000   1.0000   1.0000   1.0000   1.0000   1.0000   1.0000   1.0000
     1.0000   1.0000   1.0000   1.0000   1.0000   1.0000   1.0000   1.0000
     1.0000   1.0000   1.0000   1.0000   1.0000   1.0000   1.0000   1.0000
     1.0000   1.0000   1.0000   1.0000   1.0000   1.0000   1.0000   1.0000
     1.0000   1.0000   1.0000   1.0000   1.0000   1.0000   1.0000   1.0000
     1.0000   1.0000   1.0000   1.0000   1.0000   1.0000   1.0000   1.0000
     1.0000   1.0000   1.0000   1.0000   1.0000   1.0000   1.0000   1.0000
     1.0000   1.0000   1.0000   1.0000   1.0000   1.0000   1.0000   1.0000
     1.0000   1.0000   1.0000   1.0000   1.0000   1.0000   1.0000   1.0000
     1.0000   1.0000   1.0000   1.0000   1.0000   1.0000   1.0000   1.0000
     1.0000   1.0000   1.0000   1.0000   1.0000   1.0000   1.0000   1.0000
     1.0000   1.0000   1.0000   1.0000   1.0000   1.0000   1.0000   1.0000
     1.0000   1.0000   1.0000   1.0000   1.0000   1.0000   1.0000   1.0000
     1.0000   1.0000   1.0000   1.0000   1.0000   1.0000   1.0000   1.0000
     1.0000   1.0000   1.0000   1.0000   1.0000   1.0000   1.0000   1.0000
     1.0000   1.0000   1.0000   1.0000   1.0000   1.0000   1.0000   1.0000
     1.0000   1.0000   1.0000   1.0000   1.0000   1.0000   1.0000   1.0000
     1.0000   1.0000   1.0000   1.0000   1.0000   1.0000   1.0000   1.0000
     1.0000   1.0000   1.0000   1.0000   1.0000   1.0000   1.0000   1.0000
     1.0000   1.0000   1.0000   1.0000   1.0000   1.0000   1.0000   1.0000
     1.0000   1.0000   1.0000   1.0000   1.0000   1.0000   1.0000   1.0000
     1.0000   1.0000   1.0000   1.0000   1.0000   1.0000   1.0000   1.0000
     1.0000   1.0000   1.0000   1.0000   1.0000   1.0000   1.0000   1.0000
     1.0000   1.0000   1.0000   1.0000   1.0000   1.0000   1.0000   1.0000
     1.0000   1.0000   1.0000   1.0000   1.0000   1.0000   1.0000   1.0000
     1.0000   1.0000   1.0000   1.0000   1.0000   1.0000   1.0000   1.0000
     1.0000   1.0000   1.0000   1.0000   1.0000   1.0000   1.0000   1.0000
     1.0000   1.0000   1.0000   1.0000   1.0000   1.0000   1.0000   1.0000
     1.0000   1.0000   1.0000   1.0000   1.0000   1.0000   1.0000   1.0000
     1.0000   1.0000   1.0000   1.0000   1.0000   1.0000   1.0000   1.0000
     1.0000   1.0000   1.0000   1.0000   1.0000   1.0000   1.0000   1.0000
     1.0000   1.0000   1.0000   1.0000   1.0000   1.0000   1.0000   1.0000
     1.0000   1.0000   1.0000   1.0000   1.0000   1.0000   1.0000   1.0000
     1.0000   1.0000   1.0000   1.0000   1.0000   1.0000   1.0000   1.0000
     1.0000   1.0000   1.0000   1.0000   1.0000   1.0000   1.0000   1.0000
     0.0000   0.0000   0.0000   0.0000   0.0000   0.0000   0.0000   0.0000
     0.0000   0.0000   0.0000   0.0000   0.0000   0.0000   0.0000   0.0000
     0.0000   0.0000   0.0000   0.0000   0.0000   0.0000   0.0000   0.0000
     0.0000   0.0000   0.0000   0.0000   0.0000   0.0000   0.0000   0.0000
     0.0000   0.0000   0.0000   0.0000   0.0000   0.0000   0.0000   0.0000
     0.0000   0.0000   0.0000   0.0000   0.0000   0.0000   0.0000   0.0000
     0.0000   0.0000   0.0000   0.0000   0.0000   0.0000   0.0000   0.0000
     0.0000   0.0000   0.0000   0.0000   0.0000   0.0000   0.0000   0.0000
     0.0000   0.0000   0.0000   0.0000   0.0000   0.0000   0.0000   0.0000
     0.0000   0.0000   0.0000   0.0000   0.0000   0.0000   0.0000   0.0000
     0.0000   0.0000   0.0000   0.0000   0.0000   0.0000

     the Fermi energy is    10.2317 ev

!    total energy              =   -7208.34773608 Ry
     estimated scf accuracy    <       0.00000053 Ry
     smearing contrib. (-TS)   =      -0.00000000 Ry
     internal energy E=F+TS    =   -7208.34773608 Ry

     The total energy is F=E-TS. E is the sum of the following terms:
     one-electron contribution =   -2251.99792327 Ry
     hartree contribution      =    1546.40343539 Ry
     xc contribution           =   -1058.32855373 Ry
     ewald contribution        =   -4758.86883662 Ry
     one-center paw contrib.   =    -685.55585785 Ry
      -> PAW hartree energy AE =    1089.69066658 Ry
      -> PAW hartree energy PS =   -1085.84550284 Ry
      -> PAW xc energy AE      =    -621.70480508 Ry
      -> PAW xc energy PS      =     275.08171241 Ry
      -> total E_H with PAW    =    1550.24859913 Ry
      -> total E_XC with PAW   =   -1404.95164639 Ry

     convergence has been achieved in  15 iterations

     Writing all to output data dir ./tmp/TiO2_perfect.save/

     General routines

     Parallel routines

     PAW routines

   This run was terminated on:   0:54: 5  23Jun2025

   JOB DONE.